certificates/rado_a10_c6_N61.drat
1 -59 6 0
-1 -61 0
-61 0
57 0
-49 59 0
49 0
-5 0
59 0
1 0
17 0
-55 0
-53 0
-45 0
-21 0
-13 0
11 0
9 0
3 0
4 0
-15 0
-35 0
-7 0
-33 0
-25 0
-27 0
-6 0
-2 0
-41 0
-37 0
-8 0
-28 0
-38 0
-43 0
-51 0
-23 0
0
